(declare-const x0 Bool)
(declare-const x1 Bool)
(declare-const x2 Bool)
(declare-const x3 Bool)
(assert (= (or x0 x2) (and true x1)))
(assert (= (and x0 false) (or (or x0 x0) (= true true))))
(assert (= (and (and true (and x3 x2)) (= (= x3 (and false true)) (or false x3))) (= true true)))
(assert (or (= (= false x1) x3) false))
(assert (or (= (= x2 false) (= true true)) x2))
(assert x1)
(assert (or (and x3 (= x1 true)) (and (and false x1) (or true false))))
(assert (or (and (= true x1) (or x0 x0)) (or x0 (and x2 false))))
(assert (or (= x0 x0) x3))
(assert (= (or x0 true) x3))
(check-sat)
